QPLIB_1675
QCQ
minimize
60 # number of variables
13 # number of constraints
896 # number of quadratic terms in objective
2 1 -3.68
3 1 0.88
4 1 1.8
9 1 -2.52
12 1 -2.44
13 1 -2.84
14 1 -2.36
21 1 -3.24
23 1 -1.44
25 1 -2.28
27 1 2.92
31 1 1.64
33 1 0.2
34 1 0.16
36 1 -3.24
40 1 -1.4
42 1 2.16
43 1 3.84
44 1 -0.12
45 1 -3.84
49 1 1.24
51 1 3.6
56 1 -3.16
59 1 -2.28
60 1 1.2
2 2 0.38
8 2 1.76
10 2 1.64
11 2 3.04
16 2 0.84
17 2 1.8
20 2 0.72
22 2 0.6
25 2 2.28
27 2 -3.16
28 2 0.32
29 2 -1.12
32 2 3.44
33 2 2.2
38 2 -3.52
39 2 -0.32
43 2 -2.64
44 2 -3.52
45 2 0.92
47 2 -3.56
49 2 -3.48
54 2 3.92
55 2 2.28
56 2 3.92
59 2 -2.52
3 3 0.42
4 3 2.88
7 3 -1.56
9 3 -0.76
11 3 -1.52
13 3 1.8
15 3 -3.12
20 3 -0.64
21 3 2.4
23 3 0.6
27 3 2.2
30 3 -0.12
32 3 -1.04
34 3 1.2
35 3 -0.16
37 3 -3.04
39 3 -0.96
45 3 -3.28
47 3 -3.32
49 3 1.32
51 3 2.6
52 3 3.32
56 3 1.96
57 3 -1.24
58 3 -1.4
59 3 1.16
6 4 -0.72
11 4 -0.24
13 4 -3.32
15 4 -0.88
16 4 -1.04
17 4 2.0
20 4 0.2
22 4 2.16
25 4 -1.72
28 4 3.6
30 4 3.64
33 4 -2.96
34 4 -0.12
35 4 -0.84
36 4 -0.6
40 4 4.0
41 4 3.96
42 4 2.92
50 4 0.52
53 4 -2.4
54 4 1.48
56 4 -2.2
59 4 1.2
60 4 -1.6
6 5 -3.12
8 5 3.36
10 5 -0.08
12 5 0.44
13 5 -1.32
15 5 0.48
17 5 -1.08
19 5 2.32
20 5 0.64
22 5 2.04
23 5 0.28
24 5 0.36
25 5 -1.76
26 5 -0.24
30 5 0.8
31 5 3.84
32 5 3.12
33 5 -2.6
34 5 -3.32
36 5 -2.76
37 5 3.72
38 5 0.2
39 5 -0.92
40 5 2.24
42 5 -3.8
43 5 -2.2
45 5 3.76
46 5 3.16
50 5 1.36
52 5 3.64
53 5 3.68
55 5 -1.16
57 5 2.84
59 5 2.8
60 5 2.24
6 6 1.88
8 6 -2.56
10 6 -3.48
11 6 3.8
14 6 -2.88
16 6 2.48
19 6 1.76
20 6 3.76
23 6 -3.72
25 6 1.32
27 6 0.12
28 6 3.0
30 6 1.92
32 6 0.52
33 6 -1.56
35 6 -0.04
36 6 -2.48
42 6 -1.52
43 6 1.76
45 6 3.68
46 6 2.12
49 6 -0.6
50 6 1.52
52 6 -1.56
54 6 3.24
55 6 1.36
57 6 -1.52
58 6 0.28
7 7 -1.98
11 7 -3.88
12 7 1.32
13 7 2.68
18 7 -2.44
20 7 -1.56
21 7 -2.28
22 7 -2.48
26 7 1.12
28 7 1.2
29 7 3.4
30 7 -1.44
31 7 -1.84
32 7 2.96
34 7 1.08
37 7 -1.88
38 7 -3.08
39 7 2.32
40 7 3.52
43 7 0.8
44 7 2.68
45 7 3.72
49 7 -2.04
50 7 -2.56
51 7 0.84
55 7 2.16
57 7 -1.24
58 7 0.64
59 7 -0.04
60 7 -3.44
8 8 -0.36
9 8 -0.56
10 8 1.48
11 8 -0.52
12 8 2.92
13 8 -2.68
14 8 3.8
16 8 -1.08
18 8 1.32
19 8 -2.36
23 8 1.92
24 8 2.44
25 8 -3.04
27 8 0.68
30 8 -0.56
34 8 -0.24
35 8 1.8
36 8 -3.16
38 8 -2.96
39 8 2.88
41 8 3.48
44 8 -0.76
45 8 -0.84
47 8 2.0
48 8 -1.44
49 8 3.56
51 8 -3.04
52 8 3.16
53 8 -3.96
54 8 0.2
57 8 3.0
58 8 3.64
59 8 2.48
9 9 1.96
13 9 2.76
15 9 -0.96
19 9 -2.0
20 9 -0.68
21 9 1.04
24 9 -2.08
26 9 -0.96
32 9 2.72
33 9 2.04
36 9 -4.0
37 9 -1.6
39 9 -0.76
40 9 0.92
41 9 1.56
45 9 2.84
46 9 1.32
47 9 -1.84
48 9 2.08
50 9 2.68
51 9 -3.56
54 9 -1.24
55 9 -3.96
56 9 -0.24
57 9 2.24
10 10 0.34
12 10 2.24
14 10 -2.04
15 10 3.04
18 10 -3.12
19 10 0.24
21 10 -3.92
22 10 -0.04
23 10 2.4
24 10 -2.12
25 10 -2.8
27 10 -3.68
30 10 -1.44
31 10 0.36
33 10 -1.32
36 10 3.44
38 10 0.8
43 10 -1.44
45 10 -2.64
46 10 -1.4
50 10 3.08
53 10 -3.76
54 10 1.68
55 10 -0.92
56 10 3.12
57 10 -0.88
11 11 1.38
17 11 -0.84
19 11 3.08
20 11 -2.64
21 11 -3.28
22 11 0.36
24 11 -1.32
25 11 1.32
26 11 0.96
27 11 1.44
31 11 2.48
32 11 -3.56
33 11 -0.88
35 11 2.84
38 11 -0.36
39 11 -3.52
41 11 0.84
43 11 -1.84
44 11 1.84
45 11 3.28
47 11 -1.36
48 11 0.32
49 11 -1.68
52 11 2.0
60 11 -3.96
12 12 1.74
14 12 -0.04
15 12 2.52
17 12 0.4
18 12 0.96
21 12 3.28
24 12 3.08
25 12 1.56
27 12 -1.56
33 12 -1.88
36 12 2.04
43 12 3.56
44 12 3.08
46 12 -2.68
50 12 -1.32
53 12 3.4
58 12 -0.36
59 12 3.08
60 12 -1.08
13 13 0.96
14 13 1.48
15 13 -0.4
18 13 3.92
19 13 1.88
20 13 1.56
23 13 1.16
24 13 -0.64
26 13 0.72
32 13 3.72
33 13 2.08
34 13 -3.64
35 13 1.36
37 13 0.16
38 13 2.96
39 13 -1.4
40 13 -3.72
41 13 -3.84
46 13 3.56
47 13 -3.2
48 13 -3.4
51 13 -2.84
52 13 -0.88
53 13 -0.84
56 13 1.76
59 13 3.68
60 13 -0.88
14 14 0.6
18 14 -1.16
20 14 2.68
21 14 -0.24
22 14 0.24
23 14 1.56
24 14 -2.2
26 14 2.96
27 14 1.16
28 14 -3.76
30 14 -2.68
35 14 0.32
38 14 -3.76
42 14 2.24
47 14 -3.4
49 14 2.72
51 14 -3.36
52 14 -2.28
55 14 -0.12
18 15 -1.92
20 15 1.68
28 15 -2.24
30 15 0.04
32 15 -0.96
34 15 0.48
36 15 -2.52
41 15 -2.2
43 15 0.84
47 15 0.2
48 15 -2.96
49 15 1.08
56 15 2.84
59 15 -0.72
60 15 2.04
19 16 -1.24
21 16 1.2
26 16 0.8
27 16 -2.16
28 16 -1.68
31 16 -3.4
32 16 3.52
33 16 -2.88
34 16 -2.8
35 16 -2.2
36 16 2.36
37 16 3.52
38 16 2.48
39 16 0.36
43 16 2.4
44 16 -2.04
52 16 -0.16
54 16 -3.44
58 16 3.52
59 16 1.44
60 16 1.24
17 17 1.48
18 17 0.04
20 17 -0.4
24 17 -2.64
25 17 -0.08
26 17 2.24
27 17 0.24
28 17 3.4
29 17 -2.16
34 17 2.08
37 17 -0.32
38 17 -1.24
40 17 3.76
41 17 2.92
43 17 3.52
44 17 3.64
47 17 1.24
49 17 2.2
50 17 -3.52
51 17 -3.56
53 17 -2.52
54 17 3.0
58 17 -3.36
18 18 -0.3
20 18 -3.08
21 18 0.28
23 18 2.0
24 18 -1.4
25 18 2.32
29 18 2.96
30 18 3.96
31 18 3.8
36 18 0.28
37 18 3.56
38 18 3.28
39 18 2.84
40 18 2.28
42 18 -0.08
45 18 3.52
46 18 -0.64
47 18 3.96
49 18 0.12
52 18 -1.48
54 18 3.76
56 18 1.08
58 18 3.76
59 18 -0.68
19 19 0.8
20 19 1.72
21 19 -3.88
22 19 -0.12
23 19 2.6
25 19 -0.96
27 19 -1.04
31 19 3.28
32 19 -1.88
33 19 0.2
37 19 -0.84
38 19 -1.72
39 19 -0.88
40 19 1.56
41 19 -0.92
45 19 -0.56
46 19 -1.16
49 19 -0.72
51 19 0.24
53 19 -3.92
57 19 1.28
20 20 -0.84
21 20 -1.6
22 20 0.16
23 20 -0.16
25 20 2.52
28 20 0.64
29 20 -0.84
32 20 -3.6
33 20 1.64
35 20 0.88
37 20 1.64
39 20 -3.44
40 20 -1.52
42 20 -1.4
43 20 -2.28
44 20 2.12
45 20 -1.16
47 20 -2.6
49 20 -2.24
52 20 -2.92
55 20 -3.16
57 20 2.68
59 20 1.28
24 21 -2.12
26 21 2.32
28 21 -2.68
29 21 -2.96
30 21 3.72
35 21 2.72
36 21 0.68
41 21 -3.6
43 21 -2.08
45 21 0.2
47 21 -2.68
50 21 -2.2
56 21 1.12
57 21 0.24
58 21 -1.88
24 22 3.36
28 22 3.32
29 22 -3.76
31 22 -1.08
32 22 2.12
33 22 -1.36
34 22 -2.36
37 22 1.12
40 22 3.16
41 22 2.28
44 22 1.12
45 22 3.76
51 22 -3.56
52 22 -1.24
53 22 1.52
54 22 -1.76
55 22 -3.16
57 22 -3.76
58 22 -3.48
60 22 -0.96
27 23 -1.4
29 23 1.6
30 23 0.04
31 23 -0.68
33 23 -1.24
34 23 3.4
37 23 0.16
38 23 0.6
39 23 -0.4
40 23 -0.04
41 23 0.2
43 23 -1.8
44 23 3.28
45 23 2.48
47 23 3.28
49 23 -1.16
51 23 -3.32
52 23 -0.44
54 23 3.16
56 23 0.92
59 23 -3.4
24 24 -1.24
25 24 2.16
26 24 -0.48
31 24 0.84
33 24 -2.84
34 24 3.36
35 24 -3.68
37 24 3.24
38 24 -3.36
42 24 3.24
43 24 0.04
46 24 1.04
50 24 2.24
55 24 -2.68
56 24 3.16
59 24 2.04
60 24 -3.12
25 25 -0.88
26 25 1.12
27 25 -3.64
29 25 -0.28
31 25 2.52
32 25 -0.68
34 25 -3.6
35 25 0.04
36 25 2.64
37 25 -0.88
38 25 -2.92
39 25 2.24
40 25 -0.36
41 25 2.72
42 25 3.48
47 25 -0.24
48 25 2.56
49 25 2.56
54 25 0.76
55 25 -3.44
57 25 1.88
60 25 -3.24
30 26 -3.72
32 26 -2.24
34 26 -1.76
35 26 3.92
36 26 -1.04
37 26 1.08
38 26 0.04
41 26 -2.48
42 26 1.08
45 26 2.84
47 26 3.6
48 26 2.92
50 26 -1.0
54 26 1.08
55 26 3.4
56 26 -2.96
57 26 -0.52
59 26 1.16
60 26 0.44
27 27 -0.04
28 27 1.48
29 27 2.8
33 27 -2.28
34 27 -3.64
37 27 0.92
39 27 1.56
44 27 1.8
45 27 -2.04
50 27 3.08
51 27 -3.32
53 27 -0.84
56 27 -2.32
59 27 -2.16
28 28 -0.4
30 28 -3.56
31 28 -2.08
33 28 1.56
34 28 -1.36
37 28 2.16
38 28 1.6
39 28 3.6
41 28 -3.0
43 28 -0.76
47 28 -0.36
49 28 1.8
53 28 -3.48
54 28 -1.64
55 28 -2.92
58 28 2.24
60 28 -2.76
34 29 0.36
35 29 -1.88
39 29 3.6
40 29 -3.68
41 29 1.2
42 29 2.6
45 29 -0.44
46 29 1.24
48 29 -2.8
49 29 2.92
50 29 0.4
56 29 2.84
60 29 -0.12
30 30 -1.3
33 30 -2.28
35 30 -4.0
36 30 -3.24
39 30 -3.64
40 30 -0.84
42 30 3.36
43 30 2.28
44 30 0.32
45 30 -0.72
49 30 3.52
51 30 2.6
52 30 -1.12
53 30 -0.12
54 30 2.0
56 30 2.56
57 30 -3.16
60 30 -2.96
38 31 -3.36
39 31 3.52
41 31 3.44
43 31 0.12
45 31 -1.2
48 31 -0.84
49 31 3.76
51 31 3.08
52 31 1.08
53 31 -3.4
56 31 -0.84
59 31 1.88
60 31 -1.52
32 32 -1.06
34 32 -1.64
39 32 1.88
40 32 2.76
41 32 2.28
42 32 -0.24
43 32 -2.96
52 32 3.56
55 32 2.52
58 32 -2.32
59 32 2.68
60 32 3.44
33 33 1.88
35 33 -0.32
36 33 -2.56
38 33 2.88
40 33 -2.28
41 33 1.36
48 33 2.08
49 33 -2.2
50 33 -1.08
55 33 -3.12
57 33 -1.44
58 33 2.4
59 33 -0.12
34 34 -0.68
35 34 -0.4
36 34 -2.84
38 34 -3.08
39 34 1.72
40 34 1.44
44 34 0.36
49 34 0.8
55 34 -2.48
57 34 1.8
59 34 -0.4
35 35 -1.82
37 35 -0.72
38 35 3.64
41 35 -0.6
42 35 1.64
43 35 0.36
45 35 1.64
48 35 3.8
50 35 -3.28
60 35 -2.56
40 36 -2.48
41 36 3.32
46 36 -0.44
47 36 2.84
48 36 -2.8
51 36 -2.76
53 36 2.68
55 36 -2.72
56 36 2.92
60 36 -0.12
37 37 1.4
38 37 2.36
39 37 -0.08
40 37 0.12
46 37 2.92
47 37 -2.2
48 37 -2.72
50 37 1.48
53 37 -1.32
56 37 3.28
59 37 2.16
60 37 -3.88
41 38 3.0
44 38 -0.04
46 38 1.28
48 38 -2.8
49 38 -0.88
50 38 2.0
51 38 3.76
54 38 0.56
56 38 -0.84
43 39 -3.28
44 39 -0.08
47 39 2.4
48 39 -1.56
49 39 -3.68
52 39 -1.08
59 39 3.48
60 39 -3.44
41 40 1.88
44 40 0.36
45 40 -2.56
46 40 -2.36
47 40 -0.48
48 40 1.28
49 40 -2.88
50 40 -3.12
53 40 -0.44
55 40 -0.68
60 40 0.96
43 41 -1.32
49 41 3.4
50 41 -2.04
51 41 2.76
52 41 -3.64
53 41 1.08
55 41 -0.08
57 41 -0.56
59 41 -1.12
42 42 0.04
43 42 0.92
50 42 -0.76
51 42 2.16
52 42 -2.08
54 42 2.68
55 42 3.84
56 42 -1.32
57 42 -1.32
60 42 0.8
45 43 -0.24
47 43 -1.28
48 43 -0.4
49 43 -1.4
52 43 -3.96
53 43 3.24
55 43 -0.84
57 43 2.24
58 43 0.24
59 43 0.4
60 43 -1.92
44 44 -0.36
45 44 3.64
46 44 -1.84
47 44 3.16
48 44 0.88
49 44 -2.56
50 44 -1.92
52 44 3.12
53 44 3.36
55 44 -2.16
56 44 1.6
58 44 1.32
60 44 -0.8
45 45 -0.42
49 45 -2.04
52 45 -1.8
55 45 2.88
56 45 1.48
58 45 -0.52
59 45 -1.04
60 45 -3.8
46 46 -0.26
47 46 -1.68
49 46 -0.6
51 46 3.0
53 46 1.76
55 46 -0.12
56 46 -1.4
47 47 0.24
48 47 2.44
51 47 3.88
52 47 -0.76
53 47 0.92
55 47 0.16
57 47 -2.92
60 47 -2.68
53 48 -2.48
54 48 -1.12
58 48 2.4
59 48 0.68
49 49 0.02
50 49 -0.32
51 49 3.44
53 49 2.32
58 49 -1.84
59 49 -1.96
60 49 0.08
52 50 -1.4
53 50 2.88
55 50 -0.8
57 50 -1.4
59 50 0.12
53 51 -2.24
55 51 -1.72
56 51 -3.24
58 51 -0.8
59 51 1.08
60 51 1.16
52 52 -0.26
54 52 -1.8
55 52 3.28
56 52 1.84
57 52 -2.8
59 52 -3.52
60 52 -3.12
54 53 -0.72
57 53 2.76
58 53 -2.92
59 53 -1.12
60 53 0.52
56 54 3.36
57 54 0.16
60 54 -2.36
56 55 0.92
57 55 -1.84
59 55 -0.48
60 55 3.24
56 56 -0.6
58 56 2.56
59 56 -1.32
60 56 3.04
57 57 1.12
58 57 3.32
59 57 -0.8
60 57 -1.44
59 59 0.32
60 60 0.36
-0.86 # default value for linear coefficients in objective
58 # number of non-default linear coefficients in objective
1 -0.53
2 0.29
3 0.79
4 -0.43
5 0.13
6 0.29
7 -0.31
8 0.67
9 -0.32
10 -0.14
11 -0.94
12 -0.53
13 0.57
14 0.41
15 -0.08
18 -0.77
19 -0.92
20 -0.5
21 -0.9
22 0.52
23 0.49
24 -0.59
25 0.45
26 -0.14
27 -0.33
28 0.02
29 0.23
30 -0.25
31 0.18
32 0.77
33 -0.79
34 -0.14
35 0.34
36 0.25
37 -0.27
38 -0.41
39 -0.73
40 0.87
41 0.86
42 0.18
43 0.03
44 0.93
45 -0.91
46 -0.38
47 -0.55
48 0.96
49 0.28
50 0.6
51 0.53
52 -0.53
53 -0.48
54 0.38
55 0.92
56 -0.82
57 0.67
58 0.2
59 -0.27
60 0.12
0.0 # objective constant
898 # number of quadratic terms in all constraints
13 1 1 -0.18
13 3 1 3.52
13 4 1 3.16
13 7 1 -0.8
13 9 1 -2.8
13 14 1 1.96
13 19 1 0.44
13 21 1 3.12
13 23 1 -2.04
13 24 1 -2.68
13 27 1 1.32
13 31 1 -0.04
13 32 1 -0.8
13 36 1 3.92
13 39 1 0.24
13 40 1 -2.56
13 41 1 -2.88
13 42 1 1.2
13 44 1 2.52
13 46 1 0.6
13 54 1 -2.52
13 59 1 -3.52
13 4 2 -0.8
13 5 2 -2.0
13 6 2 -0.24
13 11 2 -3.92
13 14 2 -2.92
13 18 2 -1.48
13 21 2 -1.72
13 23 2 2.6
13 25 2 0.76
13 26 2 -2.48
13 30 2 1.84
13 33 2 3.4
13 37 2 -1.24
13 39 2 -3.2
13 40 2 -1.12
13 41 2 -0.96
13 43 2 -3.0
13 47 2 0.84
13 49 2 0.52
13 50 2 3.88
13 52 2 -0.4
13 57 2 -0.92
13 58 2 -0.56
13 3 3 -0.68
13 5 3 -1.44
13 7 3 -3.24
13 10 3 3.12
13 12 3 2.24
13 13 3 -0.4
13 14 3 -1.72
13 15 3 -1.04
13 16 3 -2.68
13 18 3 0.6
13 19 3 3.44
13 21 3 3.08
13 22 3 0.6
13 24 3 3.8
13 26 3 3.8
13 28 3 -3.52
13 29 3 3.64
13 30 3 -2.88
13 32 3 -0.36
13 33 3 -3.48
13 35 3 -1.52
13 39 3 2.24
13 43 3 1.08
13 44 3 0.6
13 48 3 -1.96
13 49 3 -3.48
13 55 3 -0.08
13 57 3 -3.92
13 58 3 -1.24
13 4 4 1.16
13 6 4 -1.8
13 15 4 0.64
13 16 4 1.04
13 19 4 1.52
13 22 4 3.52
13 23 4 -3.84
13 24 4 -0.8
13 27 4 -0.48
13 29 4 -2.84
13 30 4 -1.12
13 32 4 -0.8
13 33 4 3.8
13 34 4 -1.56
13 35 4 -1.88
13 38 4 -3.56
13 39 4 0.68
13 41 4 -0.64
13 44 4 -3.12
13 47 4 2.48
13 48 4 -3.76
13 49 4 -0.04
13 55 4 -3.12
13 56 4 -1.04
13 58 4 -0.28
13 60 4 1.48
13 6 5 -0.88
13 8 5 -1.16
13 11 5 -1.32
13 13 5 1.16
13 15 5 0.96
13 17 5 1.2
13 19 5 -3.24
13 21 5 -1.96
13 23 5 1.96
13 25 5 -3.76
13 26 5 3.92
13 28 5 -2.76
13 29 5 -3.68
13 36 5 -0.04
13 37 5 2.56
13 38 5 -0.16
13 40 5 0.12
13 42 5 -2.04
13 46 5 1.12
13 47 5 2.4
13 48 5 0.52
13 49 5 0.44
13 50 5 3.16
13 51 5 -3.92
13 56 5 2.0
13 57 5 -1.64
13 60 5 3.56
13 7 6 1.0
13 8 6 -1.32
13 10 6 3.88
13 11 6 1.84
13 14 6 3.16
13 17 6 1.36
13 18 6 -3.48
13 21 6 0.32
13 27 6 -2.68
13 30 6 3.16
13 33 6 -3.08
13 37 6 0.28
13 38 6 1.96
13 39 6 -2.6
13 41 6 -1.76
13 44 6 -2.72
13 45 6 2.4
13 48 6 2.0
13 49 6 0.04
13 55 6 -1.88
13 56 6 -3.12
13 60 6 -1.8
13 9 7 1.0
13 10 7 -1.96
13 22 7 -2.72
13 23 7 -3.92
13 24 7 1.32
13 25 7 -2.4
13 26 7 -0.4
13 30 7 -3.4
13 33 7 0.4
13 35 7 3.16
13 36 7 3.12
13 37 7 -3.0
13 39 7 0.44
13 40 7 3.32
13 42 7 -3.32
13 43 7 -2.04
13 49 7 -3.52
13 50 7 1.68
13 51 7 2.96
13 52 7 -0.08
13 53 7 -0.68
13 54 7 -3.32
13 58 7 2.0
13 59 7 -1.2
13 60 7 2.96
13 9 8 0.48
13 11 8 2.24
13 15 8 -3.64
13 16 8 0.28
13 19 8 -2.92
13 21 8 -1.2
13 22 8 -0.56
13 23 8 1.96
13 25 8 1.0
13 29 8 2.76
13 30 8 1.24
13 31 8 -3.8
13 33 8 -1.56
13 35 8 -1.72
13 36 8 -2.4
13 38 8 -0.48
13 39 8 -2.4
13 40 8 3.92
13 44 8 -3.28
13 46 8 -0.76
13 48 8 0.84
13 49 8 3.2
13 50 8 -1.48
13 51 8 -3.32
13 56 8 -1.56
13 57 8 -0.36
13 58 8 3.0
13 60 8 -0.88
13 9 9 -1.5
13 11 9 -1.28
13 12 9 3.6
13 15 9 0.56
13 16 9 0.64
13 22 9 2.72
13 24 9 1.12
13 27 9 0.48
13 28 9 0.84
13 29 9 2.08
13 30 9 1.76
13 31 9 3.96
13 33 9 -1.4
13 34 9 -0.48
13 35 9 0.64
13 36 9 -3.12
13 37 9 3.72
13 40 9 -2.32
13 41 9 2.6
13 42 9 3.16
13 44 9 0.84
13 46 9 -1.4
13 47 9 2.36
13 48 9 -2.92
13 50 9 -2.08
13 53 9 3.56
13 57 9 0.36
13 10 10 -0.62
13 13 10 3.04
13 14 10 0.64
13 16 10 -3.04
13 18 10 2.28
13 19 10 2.68
13 20 10 1.44
13 21 10 -1.28
13 22 10 -0.2
13 28 10 0.24
13 30 10 1.44
13 34 10 0.16
13 35 10 -3.16
13 40 10 -1.44
13 41 10 2.36
13 44 10 2.72
13 45 10 2.76
13 46 10 2.08
13 47 10 -2.6
13 48 10 -2.48
13 49 10 1.48
13 50 10 1.44
13 53 10 2.56
13 56 10 -1.12
13 57 10 -3.68
13 58 10 -1.68
13 59 10 -0.6
13 13 11 -1.12
13 15 11 -2.16
13 16 11 -0.04
13 18 11 0.68
13 19 11 3.36
13 20 11 3.2
13 21 11 2.72
13 23 11 1.2
13 24 11 3.64
13 26 11 2.72
13 29 11 -3.52
13 30 11 0.44
13 32 11 1.36
13 35 11 -0.56
13 36 11 0.08
13 39 11 0.64
13 41 11 3.68
13 42 11 -1.6
13 45 11 0.28
13 47 11 -2.12
13 50 11 -1.64
13 51 11 -2.64
13 56 11 2.36
13 58 11 3.44
13 12 12 -1.14
13 13 12 -0.68
13 14 12 -0.88
13 18 12 -3.0
13 21 12 3.72
13 22 12 -3.28
13 24 12 2.24
13 25 12 -3.2
13 27 12 -1.6
13 28 12 -0.6
13 29 12 -0.72
13 34 12 1.96
13 37 12 2.2
13 39 12 -2.92
13 40 12 -2.76
13 41 12 -3.84
13 44 12 2.04
13 47 12 0.96
13 49 12 1.16
13 52 12 3.04
13 54 12 -1.36
13 55 12 1.36
13 56 12 -0.44
13 57 12 1.56
13 59 12 3.12
13 13 13 -1.36
13 14 13 2.24
13 16 13 3.04
13 20 13 2.12
13 21 13 3.8
13 23 13 -3.52
13 25 13 0.96
13 27 13 -0.4
13 31 13 3.88
13 33 13 2.56
13 35 13 -0.32
13 37 13 -0.52
13 39 13 -1.52
13 41 13 -0.8
13 42 13 0.8
13 43 13 -0.32
13 46 13 0.2
13 48 13 -1.28
13 51 13 -0.92
13 52 13 0.48
13 53 13 3.88
13 56 13 2.6
13 57 13 0.8
13 58 13 -3.16
13 15 14 3.2
13 17 14 1.56
13 19 14 1.72
13 22 14 2.96
13 23 14 0.36
13 26 14 1.32
13 29 14 2.32
13 32 14 -2.44
13 36 14 3.68
13 40 14 -3.64
13 41 14 -1.2
13 43 14 -3.8
13 45 14 1.96
13 46 14 -0.44
13 50 14 -2.4
13 52 14 -1.6
13 55 14 1.8
13 56 14 1.44
13 57 14 3.36
13 58 14 -1.96
13 23 15 3.36
13 24 15 1.24
13 26 15 -2.0
13 28 15 -2.52
13 30 15 1.16
13 34 15 -2.72
13 36 15 -1.08
13 38 15 2.64
13 40 15 -2.16
13 46 15 -3.16
13 47 15 0.76
13 48 15 -0.16
13 50 15 -0.76
13 52 15 3.24
13 53 15 1.16
13 59 15 0.08
13 60 15 3.4
13 16 16 -1.0
13 18 16 0.68
13 19 16 2.4
13 21 16 2.76
13 26 16 1.12
13 29 16 -1.64
13 32 16 -1.0
13 33 16 -3.96
13 34 16 -0.96
13 37 16 1.04
13 38 16 4.0
13 42 16 2.12
13 44 16 0.64
13 45 16 -0.36
13 46 16 -3.6
13 48 16 0.44
13 50 16 -3.0
13 51 16 -3.96
13 52 16 1.44
13 55 16 -2.64
13 58 16 3.8
13 59 16 2.16
13 17 17 -0.68
13 19 17 -3.64
13 20 17 -0.2
13 25 17 -0.64
13 28 17 0.36
13 32 17 3.52
13 33 17 -0.48
13 35 17 2.56
13 36 17 1.12
13 37 17 0.84
13 38 17 -2.36
13 40 17 1.64
13 41 17 2.4
13 42 17 3.2
13 43 17 -2.04
13 44 17 -1.72
13 45 17 -0.04
13 46 17 -3.84
13 47 17 -3.56
13 51 17 -3.12
13 52 17 1.52
13 53 17 1.0
13 56 17 -1.32
13 59 17 -1.88
13 18 18 0.74
13 22 18 0.56
13 25 18 -2.32
13 27 18 -1.16
13 29 18 -0.12
13 30 18 -3.36
13 33 18 1.48
13 34 18 3.56
13 36 18 -3.04
13 37 18 1.68
13 39 18 3.68
13 40 18 -0.12
13 42 18 -2.68
13 43 18 3.48
13 44 18 -0.68
13 46 18 1.04
13 48 18 0.32
13 52 18 3.2
13 54 18 0.72
13 55 18 2.56
13 57 18 -0.96
13 58 18 0.68
13 60 18 0.44
13 20 19 -3.6
13 21 19 -0.52
13 22 19 2.88
13 28 19 2.76
13 30 19 -0.52
13 33 19 0.16
13 34 19 -0.84
13 39 19 -1.2
13 40 19 2.6
13 41 19 2.12
13 43 19 3.84
13 44 19 0.52
13 48 19 -3.48
13 49 19 -0.68
13 51 19 2.64
13 52 19 -3.68
13 57 19 -0.32
13 59 19 -3.24
13 60 19 2.6
13 20 20 -0.88
13 22 20 1.88
13 24 20 3.6
13 25 20 0.8
13 26 20 1.04
13 27 20 -1.2
13 30 20 3.92
13 34 20 -3.76
13 35 20 -0.96
13 36 20 -1.16
13 37 20 -3.28
13 39 20 3.4
13 40 20 3.08
13 43 20 -0.72
13 44 20 3.84
13 46 20 0.8
13 48 20 -3.36
13 51 20 -0.6
13 52 20 -1.76
13 56 20 -0.12
13 57 20 -2.4
13 58 20 -0.64
13 60 20 -3.8
13 25 21 -3.8
13 26 21 -4.0
13 27 21 -2.04
13 29 21 -1.88
13 38 21 1.2
13 41 21 0.36
13 43 21 1.36
13 45 21 3.12
13 47 21 1.44
13 50 21 -2.6
13 51 21 3.76
13 52 21 -2.64
13 53 21 1.04
13 23 22 -3.56
13 25 22 2.08
13 27 22 -3.64
13 28 22 0.96
13 30 22 -2.64
13 33 22 1.32
13 34 22 2.32
13 36 22 -3.36
13 37 22 0.4
13 39 22 -0.16
13 41 22 3.88
13 44 22 -2.8
13 46 22 3.4
13 47 22 3.2
13 50 22 0.48
13 51 22 -2.32
13 52 22 -2.84
13 53 22 -2.56
13 54 22 -0.48
13 60 22 -0.28
13 23 23 -0.2
13 25 23 -2.08
13 26 23 -3.96
13 28 23 -3.88
13 31 23 3.84
13 35 23 0.48
13 36 23 -1.76
13 37 23 0.36
13 39 23 0.96
13 41 23 -2.96
13 43 23 0.88
13 45 23 -0.84
13 48 23 -0.8
13 49 23 -0.8
13 50 23 -2.92
13 53 23 2.24
13 55 23 -2.04
13 56 23 3.76
13 57 23 -3.4
13 24 24 -1.64
13 25 24 1.56
13 31 24 3.76
13 32 24 3.84
13 33 24 1.72
13 34 24 -0.92
13 35 24 -0.2
13 38 24 -2.6
13 42 24 -1.6
13 43 24 1.44
13 45 24 -3.84
13 47 24 2.84
13 48 24 -1.0
13 53 24 1.24
13 54 24 -1.6
13 57 24 1.88
13 58 24 -2.88
13 59 24 1.44
13 27 25 -2.6
13 29 25 3.8
13 30 25 -2.56
13 31 25 2.92
13 32 25 0.2
13 33 25 -2.36
13 34 25 -1.0
13 37 25 0.28
13 39 25 -2.28
13 42 25 3.16
13 43 25 0.48
13 44 25 2.12
13 48 25 3.92
13 50 25 -1.92
13 51 25 0.76
13 52 25 -3.4
13 57 25 2.76
13 26 26 -0.96
13 28 26 1.44
13 31 26 1.64
13 32 26 0.68
13 40 26 0.24
13 41 26 -1.08
13 42 26 3.36
13 44 26 -2.8
13 47 26 3.4
13 48 26 -1.04
13 49 26 -1.12
13 50 26 -3.76
13 51 26 2.0
13 52 26 0.6
13 53 26 0.92
13 55 26 0.72
13 57 26 0.48
13 58 26 1.56
13 59 26 -0.24
13 60 26 3.64
13 27 27 -0.18
13 28 27 1.2
13 29 27 3.6
13 30 27 2.6
13 31 27 0.72
13 35 27 -0.96
13 38 27 1.44
13 39 27 2.08
13 40 27 2.36
13 43 27 -0.44
13 44 27 1.8
13 45 27 1.08
13 47 27 -1.08
13 50 27 1.92
13 51 27 1.8
13 52 27 2.32
13 54 27 2.8
13 57 27 -1.2
13 58 27 -1.0
13 60 27 2.08
13 29 28 -2.6
13 33 28 -1.16
13 34 28 0.8
13 35 28 -2.28
13 36 28 1.48
13 38 28 -2.04
13 39 28 -0.12
13 40 28 1.52
13 42 28 1.68
13 43 28 2.64
13 45 28 -1.36
13 47 28 -1.84
13 55 28 3.4
13 58 28 -0.48
13 29 29 1.74
13 33 29 2.0
13 35 29 0.96
13 36 29 0.4
13 39 29 -3.48
13 40 29 3.16
13 41 29 -2.84
13 42 29 1.56
13 43 29 -0.32
13 46 29 -3.92
13 47 29 1.6
13 48 29 0.2
13 50 29 0.72
13 52 29 3.88
13 53 29 2.4
13 56 29 -1.12
13 57 29 -1.0
13 58 29 0.04
13 59 29 -1.72
13 60 29 -2.96
13 30 30 -0.76
13 32 30 -2.68
13 33 30 2.36
13 34 30 2.4
13 35 30 3.88
13 37 30 3.04
13 38 30 -0.4
13 40 30 -1.0
13 44 30 1.92
13 45 30 1.28
13 48 30 -3.32
13 50 30 1.4
13 52 30 -2.96
13 53 30 0.52
13 54 30 2.8
13 57 30 -0.92
13 58 30 -1.92
13 31 31 0.82
13 33 31 0.08
13 34 31 0.92
13 35 31 -2.56
13 36 31 -2.8
13 37 31 -2.36
13 39 31 -0.56
13 41 31 3.16
13 42 31 -0.12
13 43 31 2.08
13 44 31 2.24
13 45 31 3.52
13 46 31 -3.0
13 47 31 1.68
13 49 31 -3.88
13 51 31 -1.2
13 52 31 0.6
13 53 31 -1.56
13 54 31 -2.84
13 58 31 3.24
13 60 31 -0.8
13 32 32 1.52
13 33 32 -2.4
13 35 32 1.12
13 36 32 1.56
13 37 32 3.88
13 38 32 2.84
13 40 32 3.56
13 41 32 -3.88
13 43 32 -0.2
13 44 32 2.92
13 45 32 -2.36
13 48 32 -2.44
13 53 32 -2.4
13 56 32 -0.56
13 58 32 2.4
13 60 32 0.84
13 33 33 1.12
13 34 33 3.8
13 35 33 1.48
13 36 33 -0.92
13 37 33 -3.6
13 40 33 -1.56
13 41 33 1.12
13 42 33 -1.6
13 43 33 -0.64
13 45 33 -0.88
13 50 33 3.36
13 52 33 -2.72
13 53 33 2.76
13 59 33 -0.8
13 34 34 0.78
13 36 34 3.08
13 37 34 -1.0
13 40 34 1.48
13 41 34 -0.08
13 43 34 -2.52
13 45 34 2.0
13 50 34 -1.4
13 53 34 1.8
13 55 34 1.72
13 57 34 -2.12
13 60 34 -3.64
13 35 35 1.12
13 36 35 -3.08
13 37 35 -2.76
13 39 35 2.04
13 40 35 3.32
13 41 35 -3.64
13 44 35 2.84
13 45 35 0.52
13 49 35 3.72
13 50 35 3.6
13 51 35 3.8
13 52 35 -1.52
13 53 35 0.16
13 55 35 1.84
13 58 35 1.24
13 59 35 2.8
13 36 36 -0.96
13 43 36 -0.96
13 44 36 3.08
13 45 36 1.92
13 46 36 0.24
13 47 36 2.12
13 48 36 -0.88
13 50 36 -2.92
13 54 36 0.12
13 59 36 2.8
13 60 36 -1.16
13 37 37 1.6
13 39 37 2.72
13 42 37 0.8
13 43 37 0.2
13 44 37 2.8
13 46 37 -3.56
13 48 37 0.4
13 50 37 -2.28
13 51 37 -2.08
13 52 37 3.8
13 53 37 1.52
13 55 37 1.04
13 57 37 2.32
13 58 37 0.12
13 60 37 -1.68
13 38 38 0.76
13 43 38 1.04
13 44 38 -2.6
13 46 38 0.08
13 47 38 -2.56
13 51 38 -2.08
13 52 38 2.84
13 53 38 -3.52
13 56 38 1.84
13 59 38 0.16
13 60 38 3.76
13 43 39 3.24
13 44 39 -0.8
13 46 39 0.04
13 47 39 -3.56
13 48 39 0.52
13 52 39 -1.72
13 53 39 -3.96
13 54 39 -0.36
13 57 39 1.04
13 60 39 -1.4
13 44 40 2.96
13 50 40 1.8
13 51 40 0.12
13 52 40 -1.84
13 53 40 2.92
13 54 40 -3.16
13 55 40 3.32
13 60 40 2.28
13 41 41 -0.52
13 42 41 -0.36
13 43 41 -2.4
13 44 41 -2.52
13 45 41 -0.64
13 47 41 -4.0
13 48 41 -3.88
13 49 41 -1.72
13 50 41 -2.16
13 51 41 -0.96
13 54 41 3.96
13 55 41 0.52
13 56 41 -3.88
13 59 41 -3.48
13 43 42 0.08
13 46 42 0.08
13 47 42 -2.04
13 48 42 3.6
13 50 42 -2.88
13 54 42 2.88
13 56 42 -1.52
13 58 42 -0.8
13 59 42 -3.28
13 60 42 1.56
13 45 43 3.4
13 46 43 -1.8
13 49 43 1.76
13 50 43 0.64
13 52 43 1.08
13 53 43 2.8
13 54 43 -1.16
13 55 43 0.8
13 58 43 3.04
13 47 44 1.08
13 48 44 -0.6
13 49 44 3.16
13 52 44 -1.48
13 53 44 -1.8
13 55 44 -2.28
13 56 44 -0.52
13 58 44 1.12
13 47 45 -2.84
13 48 45 -1.68
13 50 45 -1.84
13 52 45 -3.8
13 53 45 1.24
13 55 45 -2.84
13 56 45 -3.72
13 57 45 -2.76
13 59 45 -2.76
13 46 46 -1.72
13 48 46 -1.16
13 49 46 -1.64
13 51 46 -0.12
13 53 46 1.52
13 58 46 2.56
13 47 47 0.5
13 49 47 0.76
13 51 47 -1.8
13 52 47 0.88
13 55 47 -0.88
13 57 47 2.88
13 58 47 -3.28
13 59 47 -3.88
13 60 47 -1.96
13 52 48 -1.72
13 53 48 -0.84
13 55 48 2.04
13 56 48 -1.4
13 58 48 0.24
13 49 49 1.5
13 50 49 0.32
13 53 49 1.56
13 54 49 3.64
13 57 49 -2.16
13 58 49 -2.04
13 50 50 0.06
13 51 50 1.8
13 54 50 -1.04
13 56 50 -2.32
13 57 50 -0.24
13 59 50 -1.72
13 60 50 -1.6
13 52 51 2.92
13 53 51 2.92
13 55 51 3.56
13 58 51 2.76
13 60 51 3.88
13 52 52 0.3
13 53 52 -0.44
13 55 52 -0.6
13 56 52 -0.48
13 57 52 -0.48
13 59 52 1.48
13 56 53 3.4
13 57 53 3.64
13 59 53 -0.68
13 54 54 0.36
13 55 54 1.52
13 56 54 -3.28
13 56 56 -0.12
13 59 56 4.0
13 60 56 -3.44
13 57 57 -1.2
13 58 57 1.52
13 59 57 -1.16
13 59 58 -1.2
13 60 59 -3.24
13 60 60 -1.9
776 # number of linear terms in all constraints
1 1 -0.87
1 2 -0.34
1 3 0.34
1 4 0.79
1 5 1.0
1 6 0.39
1 7 0.82
1 8 -0.56
1 9 -0.14
1 10 -0.95
1 11 0.58
1 12 0.43
1 13 -0.32
1 14 1.0
1 15 0.45
1 16 -0.06
1 17 -0.45
1 18 -0.4
1 19 -0.67
1 20 -0.74
1 21 0.15
1 22 0.85
1 23 -0.37
1 24 -0.62
1 25 -0.33
1 26 -0.85
1 27 -0.67
1 28 -0.67
1 29 -0.59
1 30 0.32
1 31 -0.11
1 32 -0.43
1 33 0.62
1 34 0.36
1 35 -0.7
1 36 0.7
1 38 -0.38
1 39 -0.47
1 40 0.83
1 41 0.67
1 42 -0.68
1 43 0.05
1 44 0.63
1 45 -0.37
1 46 -0.02
1 47 -0.9
1 48 -0.77
1 49 0.95
1 50 0.42
1 51 -0.49
1 52 -0.43
1 53 0.08
1 54 -0.99
1 55 0.22
1 56 0.65
1 57 0.84
1 58 -0.55
1 59 0.13
1 60 -0.38
2 1 -0.89
2 2 0.26
2 3 0.85
2 4 0.28
2 5 -0.74
2 6 0.44
2 7 0.08
2 8 -0.54
2 9 -0.07
2 10 -0.7
2 11 0.51
2 12 -0.99
2 13 0.67
2 14 0.54
2 15 0.79
2 16 -0.61
2 17 -0.1
2 18 -0.13
2 19 0.19
2 20 0.77
2 21 -0.38
2 22 -0.19
2 23 0.1
2 24 -0.3
2 25 -0.12
2 26 -0.98
2 27 -0.71
2 28 -0.77
2 29 0.03
2 30 0.67
2 31 0.54
2 32 -0.34
2 33 0.39
2 34 0.37
2 35 0.56
2 36 -0.96
2 37 -0.56
2 38 -0.19
2 39 -0.64
2 40 0.66
2 41 -0.86
2 42 -0.78
2 43 -0.14
2 44 -0.5
2 45 0.21
2 46 -0.93
2 47 0.72
2 48 0.57
2 49 0.44
2 50 0.29
2 51 0.03
2 52 -0.53
2 53 -0.89
2 54 0.25
2 55 -0.06
2 56 0.27
2 57 0.88
2 58 -0.34
2 59 -0.38
2 60 0.31
3 1 -0.8
3 2 -0.71
3 3 0.26
3 4 -0.85
3 5 0.37
3 6 0.87
3 7 0.57
3 8 -0.07
3 9 0.37
3 10 0.91
3 11 -0.53
3 12 -0.2
3 13 -0.91
3 14 -0.44
3 15 -0.54
3 16 -0.05
3 17 0.11
3 18 0.27
3 19 0.98
3 20 -0.03
3 21 0.25
3 22 0.05
3 23 0.51
3 24 -0.25
3 25 0.53
3 26 1.0
3 27 -0.12
3 28 -0.12
3 29 0.39
3 30 -0.74
3 31 0.11
3 32 0.95
3 33 -0.71
3 34 0.45
3 35 -0.29
3 36 0.28
3 37 0.33
3 38 0.97
3 39 -0.97
3 40 -0.07
3 41 -0.15
3 42 -1.0
3 43 -0.77
3 44 0.4
3 45 -0.18
3 46 -0.42
3 47 0.26
3 48 0.7
3 49 0.39
3 50 -0.79
3 51 0.73
3 52 0.14
3 53 -0.32
3 54 0.43
3 55 0.18
3 56 -0.63
3 57 -0.67
3 58 0.74
3 59 -0.71
3 60 -0.11
4 1 -0.76
4 2 0.79
4 3 -0.89
4 4 -0.81
4 5 0.79
4 6 0.32
4 7 -0.05
4 8 0.93
4 9 -0.71
4 10 0.37
4 11 -0.06
4 12 -0.76
4 13 0.02
4 14 0.24
4 15 -0.31
4 16 -0.87
4 17 -0.04
4 18 -0.84
4 19 0.5
4 20 0.26
4 21 -0.06
4 22 -1.0
4 23 -0.86
4 24 0.97
4 25 0.18
4 26 0.83
4 27 0.85
4 28 0.33
4 29 0.81
4 30 -1.0
4 31 0.35
4 32 0.04
4 33 0.65
4 34 0.63
4 35 -0.24
4 37 -0.28
4 38 0.67
4 39 0.28
4 40 -0.5
4 41 0.54
4 42 0.17
4 43 0.54
4 44 -0.09
4 45 0.72
4 46 0.34
4 47 0.65
4 48 -0.45
4 49 -0.4
4 50 -0.26
4 51 0.52
4 52 -0.7
4 53 0.33
4 54 0.59
4 55 0.05
4 56 0.75
4 57 0.56
4 58 -0.5
4 59 0.4
4 60 0.65
5 1 0.16
5 2 -0.7
5 3 -0.56
5 4 0.46
5 5 -0.07
5 6 0.82
5 7 -0.49
5 8 -0.89
5 9 -0.73
5 10 0.85
5 11 -0.21
5 12 0.74
5 13 0.82
5 14 -0.4
5 15 0.52
5 16 0.25
5 17 -0.98
5 18 0.45
5 19 -0.72
5 20 -0.81
5 21 0.13
5 22 -0.43
5 23 0.04
5 24 -0.91
5 25 -0.39
5 26 0.99
5 27 -0.33
5 28 0.09
5 29 0.51
5 30 0.65
5 31 -0.09
5 32 0.51
5 33 0.77
5 34 0.01
5 35 -0.12
5 36 0.19
5 37 0.53
5 38 -0.48
5 39 0.08
5 40 -0.73
5 41 -0.42
5 42 0.79
5 43 0.22
5 44 0.59
5 45 -0.77
5 46 0.28
5 47 -0.21
5 48 -0.26
5 49 -0.46
5 50 0.18
5 51 0.92
5 52 0.6
5 53 0.82
5 54 -0.07
5 55 0.45
5 56 0.3
5 57 0.32
5 58 -0.14
5 59 0.1
5 60 -0.35
6 1 -0.3
6 2 -0.42
6 3 0.52
6 4 -0.23
6 5 0.9
6 6 0.48
6 7 -0.26
6 8 -0.35
6 9 0.63
6 10 0.78
6 11 -0.93
6 12 -0.06
6 13 0.39
6 14 0.84
6 15 -0.43
6 16 0.82
6 17 0.86
6 18 -0.87
6 19 0.04
6 20 0.28
6 21 0.45
6 22 -0.94
6 23 -0.16
6 24 0.71
6 25 -0.14
6 26 -0.54
6 27 0.49
6 28 0.18
6 29 -0.05
6 30 -0.08
6 31 -0.41
6 32 -0.95
6 33 -0.99
6 34 0.8
6 35 0.22
6 36 0.02
6 37 0.56
6 38 -0.55
6 40 0.95
6 41 0.07
6 42 -0.65
6 43 -0.23
6 44 -0.17
6 45 0.4
6 46 0.17
6 47 -0.43
6 48 -0.02
6 49 0.22
6 50 0.55
6 51 0.87
6 52 0.16
6 53 -0.47
6 54 -0.24
6 55 0.04
6 56 0.27
6 57 -0.06
6 58 -0.29
6 59 -0.41
6 60 -0.06
7 1 0.36
7 2 -0.94
7 3 0.11
7 4 -0.79
7 5 -0.63
7 6 0.55
7 7 0.84
7 8 -0.18
7 9 -0.3
7 10 -0.91
7 11 -0.88
7 12 -0.11
7 13 -0.8
7 14 0.08
7 15 -0.16
7 16 0.3
7 17 -0.58
7 18 -0.24
7 19 -0.37
7 20 -0.99
7 21 0.85
7 22 -0.72
7 23 -0.53
7 24 0.43
7 25 0.56
7 26 -0.13
7 27 -0.75
7 28 0.01
7 29 -0.54
7 30 0.34
7 31 -0.57
7 32 0.59
7 33 0.39
7 34 -0.55
7 35 0.13
7 36 0.65
7 37 0.01
7 38 -0.26
7 39 0.68
7 40 -0.08
7 41 0.69
7 42 -0.1
7 43 0.98
7 44 0.47
7 45 0.57
7 46 0.19
7 47 0.97
7 48 0.26
7 49 -0.46
7 50 -0.81
7 51 0.49
7 52 0.19
7 53 -0.64
7 54 -0.58
7 55 -0.92
7 56 -0.25
7 57 0.23
7 58 0.91
7 59 -0.88
7 60 0.55
8 1 -0.55
8 2 -0.7
8 3 -0.25
8 4 -0.41
8 5 0.9
8 6 -0.22
8 7 0.07
8 8 0.64
8 9 -0.39
8 10 -0.98
8 11 -0.44
8 12 -0.08
8 13 -0.14
8 14 -0.08
8 15 0.33
8 16 0.06
8 17 0.96
8 18 0.43
8 19 0.12
8 20 0.14
8 21 -0.16
8 22 0.8
8 23 -0.98
8 24 -0.37
8 25 0.76
8 26 -0.69
8 27 0.22
8 28 0.53
8 29 -0.07
8 30 -0.73
8 31 -0.21
8 32 0.18
8 33 0.81
8 34 -0.33
8 35 -0.82
8 36 -0.9
8 37 0.6
8 38 0.9
8 39 0.6
8 40 0.39
8 41 -0.7
8 42 0.21
8 43 -0.42
8 44 -0.11
8 45 -0.47
8 46 0.67
8 47 -0.1
8 48 0.76
8 49 0.82
8 50 0.15
8 51 -0.75
8 52 0.89
8 53 0.7
8 54 0.35
8 55 0.23
8 56 0.64
8 57 -0.74
8 58 -0.05
8 59 -0.48
8 60 0.06
9 1 -0.61
9 2 0.09
9 3 -0.92
9 4 -0.02
9 5 -0.77
9 6 -0.62
9 7 -0.99
9 8 0.96
9 9 0.9
9 10 -0.98
9 11 -0.86
9 12 0.35
9 13 0.3
9 14 -0.01
9 15 -0.3
9 16 0.79
9 17 -0.37
9 18 -0.84
9 19 -0.89
9 20 0.55
9 21 0.24
9 22 -0.2
9 23 -0.16
9 24 -0.01
9 25 -0.55
9 26 0.45
9 27 -0.47
9 28 0.45
9 29 0.57
9 30 -0.94
9 31 0.98
9 32 0.3
9 33 0.21
9 34 -0.28
9 35 0.62
9 36 0.67
9 37 -0.87
9 38 0.63
9 39 0.48
9 40 0.5
9 41 -0.45
9 42 0.48
9 43 0.44
9 44 -0.39
9 45 0.36
9 46 -0.39
9 47 0.05
9 48 -0.59
9 49 0.08
9 50 0.83
9 51 -0.53
9 52 0.85
9 53 -0.1
9 54 -0.19
9 55 -0.39
9 56 0.92
9 57 -0.24
9 58 0.55
9 59 -0.6
9 60 0.6
10 1 -0.7
10 2 0.87
10 3 -0.23
10 4 0.76
10 5 0.22
10 7 -0.07
10 8 -0.06
10 9 0.2
10 10 0.76
10 11 0.77
10 12 -0.97
10 13 0.23
10 14 -0.96
10 15 -0.63
10 16 -0.79
10 17 -0.86
10 18 -0.08
10 19 0.25
10 20 0.91
10 21 -0.55
10 22 -0.39
10 23 -0.5
10 24 0.2
10 25 -0.86
10 26 0.99
10 27 0.44
10 28 0.56
10 29 -0.62
10 30 -0.6
10 31 0.11
10 32 -0.37
10 33 -0.43
10 34 -0.95
10 35 0.9
10 36 0.31
10 37 -0.72
10 38 0.13
10 39 0.72
10 40 -0.92
10 41 -0.66
10 42 -0.91
10 43 0.89
10 44 -0.08
10 45 0.3
10 46 -0.3
10 47 0.23
10 48 0.68
10 49 0.75
10 50 0.82
10 51 -0.98
10 52 0.98
10 53 -0.38
10 54 -0.32
10 55 0.49
10 56 -0.92
10 57 0.79
10 58 0.38
10 59 0.63
10 60 -0.59
11 1 0.92
11 2 0.1
11 3 -0.78
11 4 0.92
11 5 0.54
11 6 0.03
11 7 0.56
11 8 0.4
11 9 0.37
11 10 0.03
11 11 -0.73
11 12 -0.6
11 13 -0.48
11 14 0.87
11 15 -0.07
11 16 0.35
11 17 0.07
11 18 0.45
11 19 0.6
11 20 -0.26
11 21 -0.49
11 22 0.48
11 23 -0.67
11 24 -0.23
11 25 0.23
11 26 -0.04
11 27 -0.04
11 28 -0.71
11 29 -0.56
11 30 0.39
11 31 -0.52
11 32 0.17
11 33 -0.41
11 34 -0.92
11 35 -0.11
11 36 0.24
11 37 0.59
11 38 -0.56
11 39 -0.89
11 40 0.94
11 41 -0.69
11 42 -0.5
11 43 -0.7
11 44 -0.98
11 45 0.85
11 46 -0.69
11 47 0.08
11 48 -0.34
11 49 0.72
11 50 0.96
11 51 0.16
11 52 -0.72
11 53 0.51
11 54 -0.98
11 55 -0.98
11 56 0.42
11 57 0.88
11 58 0.51
11 59 0.3
11 60 0.05
12 1 0.07
12 2 0.13
12 3 0.68
12 4 -0.47
12 5 0.63
12 6 0.92
12 7 -0.52
12 8 0.07
12 9 0.28
12 10 0.08
12 11 0.2
12 12 -0.11
12 13 0.94
12 14 0.81
12 15 0.78
12 16 -0.31
12 17 0.56
12 18 -0.03
12 19 0.36
12 20 0.33
12 21 0.68
12 22 0.94
12 23 -0.99
12 24 -0.33
12 25 0.46
12 26 0.65
12 27 0.15
12 28 0.12
12 29 0.97
12 30 -0.33
12 31 0.27
12 32 -0.08
12 33 0.77
12 34 0.73
12 35 -0.27
12 36 0.54
12 37 0.13
12 38 -0.84
12 39 0.66
12 40 0.15
12 41 -0.91
12 42 0.03
12 43 -0.51
12 44 0.28
12 45 -0.27
12 46 0.52
12 47 -0.29
12 48 -0.7
12 49 -0.63
12 50 -0.87
12 51 -0.69
12 52 -0.53
12 53 -0.85
12 54 0.31
12 55 0.3
12 56 0.82
12 57 -0.97
12 58 -0.95
12 59 -0.81
12 60 0.9
13 1 -0.45
13 2 -0.68
13 3 -0.69
13 4 0.79
13 5 0.84
13 6 0.02
13 7 0.31
13 8 -0.06
13 9 0.21
13 10 -0.91
13 11 0.37
13 12 0.14
13 13 0.03
13 14 -0.99
13 15 -0.32
13 16 -0.53
13 17 -0.55
13 18 0.64
13 19 0.39
13 20 -0.84
13 21 -0.81
13 22 -0.49
13 23 0.03
13 24 0.39
13 25 -0.12
13 26 0.64
13 27 0.86
13 28 0.27
13 29 0.16
13 30 -0.25
13 31 0.02
13 32 -0.86
13 33 0.33
13 34 0.32
13 35 -0.25
13 36 -0.99
13 37 -0.53
13 38 0.73
13 39 -0.3
13 40 0.33
13 41 0.13
13 42 0.21
13 43 0.59
13 44 0.76
13 45 0.06
13 46 -0.84
13 47 -0.63
13 48 0.72
13 49 0.29
13 50 -0.99
13 51 -0.12
13 52 0.45
13 53 -0.25
13 54 -0.83
13 55 0.97
13 56 0.77
13 57 -0.06
13 58 -0.3
13 59 -0.88
13 60 -0.01
1.79769313486232E+308 # value for infinity
-1.79769313486232E+308 # default left-hand-side value
12 # number of non-default left-hand-sides
1 0.4
2 -0.69
3 0.02
4 0.13
5 -0.92
6 0.18
7 -0.21
8 -0.52
9 0.92
10 0.08
11 -0.46
12 -0.07
50.57 # default right-hand-side value
12 # number of non-default right-hand-sides
1 0.4
2 -0.69
3 0.02
4 0.13
5 -0.92
6 0.18
7 -0.21
8 -0.52
9 0.92
10 0.08
11 -0.46
12 -0.07
0.0 # default variable lower bound value
0 # number of non-default variable lower bounds
1.0 # default variable upper bound value
0 # number of non-default variable upper bounds
0.0 # default variable primal value in starting point
0 # number of non-default variable primal values in starting point
0.0 # default constraint dual value in starting point
0 # number of non-default constraint dual values in starting point
0.0 # default variable bound dual value in starting point
0 # number of non-default variable bound dual values in starting point
0 # number of non-default variable names
0 # number of non-default constraint names
